VER
4

OBJSENSE
MIN

VAR
30 1
F 30

CON
2510 4
SVECQRE 2451
SVECQE 30
SVECPSD 28
L= 1

OBJACOORD
2
0 1.0
1 1.0

ACOORD
268
0 0 1.0
1 2 1.0
29 3 1.0
36 4 1.0
106 5 1.0
113 6 1.0
120 7 1.0
232 8 1.0
239 9 1.0
246 10 1.0
253 11 1.0
407 12 1.0
414 13 1.0
421 14 1.0
428 15 1.0
435 16 1.0
631 17 1.0
638 18 1.0
645 19 1.0
652 20 1.0
659 21 1.0
666 22 1.0
904 23 1.0
911 24 1.0
918 25 1.0
925 26 1.0
932 27 1.0
939 28 1.0
946 29 1.0
1226 2 1.0
1228 2 1.0
1231 2 1.0
1235 2 1.0
1240 2 1.0
1246 2 1.0
1253 2 1.0
1254 3 1.0
1261 4 1.0
1263 3 1.0
1270 4 1.0
1273 3 1.0
1280 4 1.0
1284 3 1.0
1291 4 1.0
1296 3 1.0
1303 4 1.0
1309 3 1.0
1316 4 1.0
1323 3 1.0
1330 4 1.0
1331 5 1.0
1338 6 1.0
1345 7 1.0
1347 5 1.0
1354 6 1.0
1361 7 1.0
1364 5 1.0
1371 6 1.0
1378 7 1.0
1382 5 1.0
1389 6 1.0
1396 7 1.0
1401 5 1.0
1408 6 1.0
1415 7 1.0
1421 5 1.0
1428 6 1.0
1435 7 1.0
1442 5 1.0
1449 6 1.0
1456 7 1.0
1457 8 1.0
1464 9 1.0
1471 10 1.0
1478 11 1.0
1480 8 1.0
1487 9 1.0
1494 10 1.0
1501 11 1.0
1504 8 1.0
1511 9 1.0
1518 10 1.0
1525 11 1.0
1529 8 1.0
1536 9 1.0
1543 10 1.0
1550 11 1.0
1555 8 1.0
1562 9 1.0
1569 10 1.0
1576 11 1.0
1582 8 1.0
1589 9 1.0
1596 10 1.0
1603 11 1.0
1610 8 1.0
1617 9 1.0
1624 10 1.0
1631 11 1.0
1632 12 1.0
1639 13 1.0
1646 14 1.0
1653 15 1.0
1660 16 1.0
1662 12 1.0
1669 13 1.0
1676 14 1.0
1683 15 1.0
1690 16 1.0
1693 12 1.0
1700 13 1.0
1707 14 1.0
1714 15 1.0
1721 16 1.0
1725 12 1.0
1732 13 1.0
1739 14 1.0
1746 15 1.0
1753 16 1.0
1758 12 1.0
1765 13 1.0
1772 14 1.0
1779 15 1.0
1786 16 1.0
1792 12 1.0
1799 13 1.0
1806 14 1.0
1813 15 1.0
1820 16 1.0
1827 12 1.0
1834 13 1.0
1841 14 1.0
1848 15 1.0
1855 16 1.0
1856 17 1.0
1863 18 1.0
1870 19 1.0
1877 20 1.0
1884 21 1.0
1891 22 1.0
1893 17 1.0
1900 18 1.0
1907 19 1.0
1914 20 1.0
1921 21 1.0
1928 22 1.0
1931 17 1.0
1938 18 1.0
1945 19 1.0
1952 20 1.0
1959 21 1.0
1966 22 1.0
1970 17 1.0
1977 18 1.0
1984 19 1.0
1991 20 1.0
1998 21 1.0
2005 22 1.0
2010 17 1.0
2017 18 1.0
2024 19 1.0
2031 20 1.0
2038 21 1.0
2045 22 1.0
2051 17 1.0
2058 18 1.0
2065 19 1.0
2072 20 1.0
2079 21 1.0
2086 22 1.0
2093 17 1.0
2100 18 1.0
2107 19 1.0
2114 20 1.0
2121 21 1.0
2128 22 1.0
2129 23 1.0
2136 24 1.0
2143 25 1.0
2150 26 1.0
2157 27 1.0
2164 28 1.0
2171 29 1.0
2173 23 1.0
2180 24 1.0
2187 25 1.0
2194 26 1.0
2201 27 1.0
2208 28 1.0
2215 29 1.0
2218 23 1.0
2225 24 1.0
2232 25 1.0
2239 26 1.0
2246 27 1.0
2253 28 1.0
2260 29 1.0
2264 23 1.0
2271 24 1.0
2278 25 1.0
2285 26 1.0
2292 27 1.0
2299 28 1.0
2306 29 1.0
2311 23 1.0
2318 24 1.0
2325 25 1.0
2332 26 1.0
2339 27 1.0
2346 28 1.0
2353 29 1.0
2359 23 1.0
2366 24 1.0
2373 25 1.0
2380 26 1.0
2387 27 1.0
2394 28 1.0
2401 29 1.0
2408 23 1.0
2415 24 1.0
2422 25 1.0
2429 26 1.0
2436 27 1.0
2443 28 1.0
2450 29 1.0
2451 1 1.0
2453 2 1.0
2453 4 1.0
2453 7 1.0
2453 11 1.0
2453 16 1.0
2453 22 1.0
2453 29 1.0
2481 2 1.0
2482 3 1.0
2483 4 1.0
2484 5 1.0
2485 6 1.0
2486 7 1.0
2487 8 1.0
2488 9 1.0
2489 10 1.0
2490 11 1.0
2491 12 1.0
2492 13 1.0
2493 14 1.0
2494 15 1.0
2495 16 1.0
2496 17 1.0
2497 18 1.0
2498 19 1.0
2499 20 1.0
2500 21 1.0
2501 22 1.0
2502 23 1.0
2503 24 1.0
2504 25 1.0
2505 26 1.0
2506 27 1.0
2507 28 1.0
2508 29 1.0
2509 2 1.0
2509 4 1.0
2509 7 1.0
2509 11 1.0
2509 16 1.0
2509 22 1.0
2509 29 1.0

BCOORD
2
2452 -1.0
2509 1.0
